unsat
(:max-memory          18.00
 :memory              17.90
 :nlsat-conflicts     2
 :nlsat-learned-added 1
 :nlsat-propagations  4
 :nlsat-stages        2
 :num-allocs          4894
 :rlimit-count        596
 :time                0.00
 :total-time          0.01)
